p cnf 35 98
a 24 0
e 1 2 3 4 5 6 7 8 9 10 11 12 13 14 15 16 17 18 19 20 21 22 23 25 26 27 28 29 30 31 32 33 34 35 0
-4 1 0
-4 -3 0
-1 3 4 0
-2 4 -5 0
2 -4 -5 0
-2 -4 5 0
2 4 5 0
-5 6 -7 0
5 -6 -7 0
-5 -6 7 0
5 6 7 0
-7 -3 -8 0
7 3 -8 0
-7 3 8 0
7 -3 8 0
-9 1 0
-9 8 0
-1 -8 9 0
-11 10 0
-11 -2 0
-10 2 11 0
13 -11 0
13 -12 0
11 12 -13 0
-14 -9 0
-14 13 0
9 -13 14 0
-15 12 0
-15 -10 0
-12 10 15 0
16 4 0
16 15 0
-4 -15 -16 0
-17 5 0
-17 16 0
-5 -16 17 0
18 -2 0
18 15 0
2 -15 -18 0
4 18 -19 0
-4 -18 -19 0
4 -18 19 0
-4 18 19 0
20 17 0
20 19 0
-17 -19 -20 0
-21 -14 0
-21 20 0
14 -20 21 0
23 4 0
23 22 0
-4 -22 -23 0
-3 -6 -24 0
3 6 -24 0
-3 6 24 0
3 -6 24 0
25 18 0
25 -12 0
-18 12 -25 0
-26 -24 0
-26 25 0
24 -25 26 0
27 -23 0
27 26 0
23 -26 -27 0
-28 -21 0
-28 -27 0
21 27 28 0
29 4 0
29 -7 0
-4 7 -29 0
-30 -11 0
-30 -2 0
11 2 30 0
-31 29 0
-31 30 0
-29 -30 31 0
32 -28 0
32 -31 0
28 31 -32 0
29 -33 -34 0
-29 33 -34 0
29 33 34 0
-29 -33 34 0
-32 34 -35 0
32 -34 -35 0
-32 -34 35 0
32 34 35 0
7 17 14 -24 21 2 0
-26 5 -32 28 23 0
-2 -5 35 -21 0
-17 14 -8 3 30 -6 0
18 6 -25 -3 -13 -29 0
-35 14 -5 0
-17 -25 -1 34 11 -23 0
16 29 4 21 -1 0
-21 -16 -29 7 -24 0
35 0
